-44.0 7.0 0.0 10.0 8.0 5.0 2.0 4.0 4.0 0.0 0.0 1.0 3.0 
7.0 -64.0 4.0 3.0 3.0 10.0 6.0 1.0 10.0 2.0 4.0 9.0 5.0 
0.0 4.0 -64.0 1.0 9.0 2.0 7.0 6.0 5.0 7.0 10.0 7.0 6.0 
10.0 3.0 1.0 -51.0 1.0 1.0 5.0 8.0 7.0 2.0 7.0 5.0 1.0 
8.0 3.0 9.0 1.0 -71.0 7.0 7.0 5.0 10.0 6.0 1.0 8.0 6.0 
5.0 10.0 2.0 1.0 7.0 -59.0 2.0 3.0 2.0 4.0 10.0 8.0 5.0 
2.0 6.0 7.0 5.0 7.0 2.0 -51.0 0.0 7.0 5.0 6.0 4.0 0.0 
4.0 1.0 6.0 8.0 5.0 3.0 0.0 -54.0 1.0 6.0 8.0 5.0 7.0 
4.0 10.0 5.0 7.0 10.0 2.0 7.0 1.0 -75.0 7.0 10.0 10.0 2.0 
0.0 2.0 7.0 2.0 6.0 4.0 5.0 6.0 7.0 -45.0 1.0 0.0 5.0 
0.0 4.0 10.0 7.0 1.0 10.0 6.0 8.0 10.0 1.0 -67.0 6.0 4.0 
1.0 9.0 7.0 5.0 8.0 8.0 4.0 5.0 10.0 0.0 6.0 -69.0 6.0 
3.0 5.0 6.0 1.0 6.0 5.0 0.0 7.0 2.0 5.0 4.0 6.0 -50.0 

